CMPL model generation - running

CMPL version: 1.11.0
Authors: Thomas Schleiff, Mike Steglich
Distributed under the GPLv3 

create model instance ...
write model instance ...
CMPL model generation - finished

Solver - running


Welcome to IBM(R) ILOG(R) CPLEX(R) Interactive Optimizer 12.7.1.0
  with Simplex, Mixed Integer & Barrier Optimizers
5725-A06 5725-A29 5724-Y48 5724-Y49 5724-Y54 5724-Y55 5655-Y21
Copyright IBM Corp. 1988, 2017.  All Rights Reserved.

Type 'help' for a list of available commands.
Type 'help' followed by a command name for more
information on commands.

CPLEX> Specified objective sense: MINIMIZE
Selected objective  name:  line[1]
Selected RHS        name:  RHS
Selected bound      name:  BOUND
Problem '/tmp/cmpl.T23520.mps' read.
Read time = 0.05 sec. (8.16 ticks)
CPLEX> CPXPARAM_Read_APIEncoding                        "UTF-8"
Tried aggregator 3 times.
MIP Presolve eliminated 19301 rows and 30819 columns.
MIP Presolve modified 340 coefficients.
Aggregator did 584 substitutions.
Reduced MIP has 2470 rows, 3190 columns, and 9320 nonzeros.
Reduced MIP has 3022 binaries, 0 generals, 0 SOSs, and 0 indicators.
Presolve time = 0.05 sec. (41.68 ticks)
Found incumbent of value 326.586691 after 0.08 sec. (62.75 ticks)
Probing fixed 3 vars, tightened 0 bounds.
Probing time = 0.01 sec. (4.09 ticks)
Tried aggregator 1 time.
MIP Presolve eliminated 0 rows and 3 columns.
MIP Presolve modified 12 coefficients.
Reduced MIP has 2470 rows, 3187 columns, and 9314 nonzeros.
Reduced MIP has 3187 binaries, 0 generals, 0 SOSs, and 0 indicators.
Presolve time = 0.01 sec. (7.95 ticks)
Probing time = 0.01 sec. (2.66 ticks)
Clique table members: 5688.
MIP emphasis: balance optimality and feasibility.
MIP search method: dynamic search.
Parallel mode: none, using 1 thread.
Root relaxation solution time = 0.00 sec. (4.25 ticks)

        Nodes                                         Cuts/
   Node  Left     Objective  IInf  Best Integer    Best Bound    ItCnt     Gap

*     0+    0                          326.5867      -48.3967           114.82%
      0     0       37.8962    25      326.5867       37.8962       74   88.40%
*     0+    0                           91.2591       37.8962            58.47%
*     0+    0                           38.6104       37.8962             1.85%
      0     0        cutoff             38.6104                     74    0.00%
Elapsed time = 0.14 sec. (97.27 ticks, tree = 0.01 MB, solutions = 3)

Root node processing (before b&c):
  Real time             =    0.14 sec. (98.76 ticks)
Sequential b&c:
  Real time             =    0.00 sec. (0.00 ticks)
                          ------------
Total (root+branch&cut) =    0.14 sec. (98.76 ticks)

Solution pool: 3 solutions saved.

MIP - Integer optimal solution:  Objective =  3.8610439000e+01
Solution time =    0.14 sec.  Iterations = 74  Nodes = 0
Deterministic time = 98.86 ticks  (705.02 ticks/sec)

CPLEX> Incumbent solution written to file '/tmp/cmpl.T23520.gsol'.
CPLEX> 
CMPL: Time used for model generation: 1 seconds
CMPL: Time used for solving the model: 1 seconds


Solution written to ASCII file: results/output_generated_conf_0.1/2016-04-04-4/fair-nonlinear.sol

Solver - finished
